%%%mzn-stat: initTime=0.002330299
%%%mzn-stat: objective=1022
%%%mzn-stat: nodes=1660
%%%mzn-stat: restarts=0
%%%mzn-stat: peakDepth=75
%%%mzn-stat: solveTime=0.082276442
%%%mzn-stat: variables=206
%%%mzn-stat: propagators=316
%%%mzn-stat: failures=1402
%%%mzn-stat: propagations=205462
%%%mzn-stat: nogoods=1402
%%%mzn-stat: AverageConflictSize=4.229671897289586
%%%mzn-stat: NumUnitNogoodsLearned=942
%%%mzn-stat: AverageLearnedNogoodLength=3.7075606276747504
%%%mzn-stat: AverageBacktrackAmount=0
%%%mzn-stat: AverageLbd=2.3523537803138375
%%%mzn-stat-end
maxleg = 1022;
succ = array1d(1..20,[7, 12, 19, 11, 14, 20, 8, 10, 5, 2, 1, 15, 3, 16, 18, 17, 4, 6, 9, 13]);
% time elapsed: 1.17 s
----------
==========
% time elapsed: 1.17 s
%%%mzn-stat: initTime=0.002330299
%%%mzn-stat: objective=1022
%%%mzn-stat: nodes=1660
%%%mzn-stat: restarts=0
%%%mzn-stat: peakDepth=75
%%%mzn-stat: solveTime=0.082279318
%%%mzn-stat: variables=206
%%%mzn-stat: propagators=316
%%%mzn-stat: failures=1402
%%%mzn-stat: propagations=205462
%%%mzn-stat: nogoods=1402
%%%mzn-stat: AverageConflictSize=4.229671897289586
%%%mzn-stat: NumUnitNogoodsLearned=942
%%%mzn-stat: AverageLearnedNogoodLength=3.7075606276747504
%%%mzn-stat: AverageBacktrackAmount=0
%%%mzn-stat: AverageLbd=2.3523537803138375
%%%mzn-stat-end
